Version identifier: 22.1.0.0 | 2022-03-09 | 1a383f8ce
CPXPARAM_Threads                                 1
CPXPARAM_MIP_Strategy_VariableSelect             3
CPXPARAM_TimeLimit                               599.99384558899999
Tried aggregator 1 time.
MIP Presolve eliminated 26 rows and 0 columns.
MIP Presolve modified 1 coefficients.
Reduced MIP has 2694 rows, 6000 columns, and 77838 nonzeros.
Reduced MIP has 6000 binaries, 0 generals, 0 SOSs, and 0 indicators.
Presolve time = 0.04 sec. (32.89 ticks)
Probing time = 0.00 sec. (4.03 ticks)
Tried aggregator 1 time.
Detecting symmetries...
Reduced MIP has 2694 rows, 6000 columns, and 77838 nonzeros.
Reduced MIP has 6000 binaries, 0 generals, 0 SOSs, and 0 indicators.
Presolve time = 0.05 sec. (41.92 ticks)
Probing time = 0.00 sec. (4.03 ticks)
Clique table members: 895.
MIP emphasis: balance optimality and feasibility.
MIP search method: dynamic search.
Parallel mode: none, using 1 thread.
Root relaxation solution time = 4.41 sec. (4540.02 ticks)

        Nodes                                         Cuts/
   Node  Left     Objective  IInf  Best Integer    Best Bound    ItCnt     Gap

      0     0        0.0000  1443                      0.0000    10396         
*     0+    0                            0.0000        0.0000             0.00%
      0     0        cutoff              0.0000        0.0000    10396    0.00%
Elapsed time = 18.19 sec. (18911.37 ticks, tree = 0.01 MB, solutions = 1)

Root node processing (before b&c):
  Real time             =   18.19 sec. (18911.55 ticks)
Sequential b&c:
  Real time             =    0.00 sec. (0.00 ticks)
                          ------------
Total (root+branch&cut) =   18.19 sec. (18911.55 ticks)
Primal:	300
Dual:	300
Status:	Optimal
Time:	18.2272
Sequence:
	17
	10
	14
	9
	19
	16
	12
	14
	9
	19
	2
	14
	4
	19
	10
	8
	6
	7
	3
	12
	0
	6
	11
	7
	12
	0
	3
	7
	6
	0
	11
	12
	7
	6
	17
	7
	12
	4
	3
	10
	18
	15
	3
	13
	15
	4
	11
	6
	2
	12
	11
	18
	6
	16
	15
	11
	18
	14
	0
	1
	9
	2
	18
	1
	15
	4
	2
	19
	5
	10
	4
	16
	19
	14
	12
	13
	8
	19
	14
	10
	9
	19
	2
	14
	12
	19
	9
	16
	6
	11
	15
	18
	0
	1
	13
	15
	4
	11
	10
	4
	12
	3
	7
	12
	4
	1
	0
	7
	12
	3
	5
	16
	9
	1
	0
	6
	13
	3
	15
	0
	6
	11
	4
	12
	7
	1
	0
	4
	12
	19
	14
	8
	18
	1
	2
	6
	0
	11
	6
	2
	6
	11
	8
	14
	0
	1
	18
	8
	14
	17
	5
	18
	2
	1
	8
	5
	7
	17
	14
	4
	15
	3
	2
	5
	9
	17
	6
	2
	14
	19
	8
	5
	2
	1
	18
	8
	14
	3
	15
	9
	16
	19
	6
	10
	18
	19
	16
	6
	10
	19
	13
	8
	14
	17
	7
	6
	0
	1
	7
	8
	18
	17
	14
	14
	8
	19
	16
	5
	14
	17
	7
	8
	5
	3
	15
	13
	0
	1
	9
	10
	4
	2
	6
	11
	12
	18
	2
	1
	4
	15
	13
	17
	7
	5
	16
	19
	12
	13
	13
	17
	5
	12
	7
	3
	8
	6
	10
	3
	18
	8
	14
	1
	18
	0
	16
	19
	14
	9
	15
	3
	13
	15
	9
	3
	2
	18
	12
	1
	18
	0
	7
	1
	12
	18
	16
	11
	6
	12
	13
	17
	7
	6
	12
	3
	8
	7
	6
	11
	15
	2
	18
	1
	18
	15
	16
	3
	18
	6
	10
	17
